
Gurobi 11.0.3 (linux64) logging started Sat Nov 23 18:46:54 2024

Set parameter LogFile to value "/home/yihong/Coding/OR_SUC/SUC_results_bigM100000_thread4/case24_ieee_rts_theta0.5_epsilon0.025_gurobi_seed950000_num_gen100_N_WDR150_load_scaling_factor1_proposed_T24quadra_cost.txt"
Set parameter TimeLimit to value 3600
Gurobi Optimizer version 11.0.3 build v11.0.3rc0 (linux64 - "Ubuntu 20.04.6 LTS")

CPU model: AMD EPYC 7532 32-Core Processor, instruction set [SSE2|AVX|AVX2]
Thread count: 64 physical cores, 128 logical processors, using up to 4 threads

Optimize a model with 53864 rows, 29911 columns and 911262 nonzeros
Model fingerprint: 0xb429efbd
Model has 2400 quadratic constraints
Variable types: 27511 continuous, 2400 integer (2400 binary)
Coefficient statistics:
  Matrix range     [3e-04, 3e+03]
  QMatrix range    [2e-03, 8e-03]
  QLMatrix range   [3e-01, 6e+01]
  Objective range  [1e+00, 1e+00]
  Bounds range     [1e+00, 1e+00]
  RHS range        [1e+00, 9e+03]
Presolve removed 43687 rows and 12761 columns
Presolve time: 0.31s
Presolved: 10177 rows, 17150 columns, 53369 nonzeros
Presolved model has 2400 quadratic constraint(s)
Variable types: 14750 continuous, 2400 integer (2400 binary)

Root relaxation: objective 7.537151e+04, 8499 iterations, 0.21 seconds (0.30 work units)

    Nodes    |    Current Node    |     Objective Bounds      |     Work
 Expl Unexpl |  Obj  Depth IntInf | Incumbent    BestBd   Gap | It/Node Time

H    0     0                    677882.93159 75371.5098  88.9%     -    0s
*    0     0               0    677882.93159 75371.5098  88.9%     -    0s
     0     0 420692.268    0  610 677882.932 420692.268  37.9%     -    1s
     0     0 646414.560    0  279 677882.932 646414.560  4.64%     -    1s
     0     0 646487.261    0   78 677882.932 646487.261  4.63%     -    1s
     0     0 646630.972    0   66 677882.932 646630.972  4.61%     -    1s
     0     0 646636.125    0   66 677882.932 646636.125  4.61%     -    1s
     0     0 646636.125    0   61 677882.932 646636.125  4.61%     -    2s
     0     0 646637.474    0   61 677882.932 646637.474  4.61%     -    2s
     0     2 646637.474    0   61 677882.932 646637.474  4.61%     -    3s
   112   148 647248.755   27   20 677882.932 646639.482  4.61%  31.2    5s
H  602   416                    647021.40178 646648.337  0.06%  29.5    9s
*  602   416              61    647021.40178 646648.337  0.06%  29.5    9s

Cutting planes:
  Gomory: 27
  Lift-and-project: 15
  Implied bound: 362
  MIR: 35
  Flow cover: 65
  RLT: 331
  Relax-and-lift: 99

Explored 707 nodes (43576 simplex iterations) in 10.14 seconds (13.63 work units)
Thread count was 4 (of 128 available processors)

Solution count 3: 647021 647021 677883 

Optimal solution found (tolerance 1.00e-03)
Warning: max constraint violation (1.9503e-07) exceeds tolerance
Best objective 6.470214017793e+05, best bound 6.466485404451e+05, gap 0.0576%
